NAME           C:\Bruker\Hvattum\knapsack\Problems\class1\100-5-27.mps
ROWS
 N  OBJ
 L  CONSTR1
 L  CONSTR2
 L  CONSTR3
 L  CONSTR4
 L  CONSTR5
COLUMNS
    INT0001   'MARKER'  'INTORG'
    X1        OBJ       539
    X1        CONSTR1   836
    X1        CONSTR2   268
    X1        CONSTR3   220
    X1        CONSTR4   435
    X1        CONSTR5   502
    X2        OBJ       564
    X2        CONSTR1   84
    X2        CONSTR2   367
    X2        CONSTR3   26
    X2        CONSTR4   132
    X2        CONSTR5   128
    X3        OBJ       604
    X3        CONSTR1   299
    X3        CONSTR2   597
    X3        CONSTR3   365
    X3        CONSTR4   950
    X3        CONSTR5   37
    X4        OBJ       864
    X4        CONSTR1   121
    X4        CONSTR2   833
    X4        CONSTR3   283
    X4        CONSTR4   178
    X4        CONSTR5   969
    X5        OBJ       1149
    X5        CONSTR1   335
    X5        CONSTR2   995
    X5        CONSTR3   509
    X5        CONSTR4   743
    X5        CONSTR5   798
    X6        OBJ       727
    X6        CONSTR1   351
    X6        CONSTR2   89
    X6        CONSTR3   249
    X6        CONSTR4   991
    X6        CONSTR5   867
    X7        OBJ       481
    X7        CONSTR1   749
    X7        CONSTR2   12
    X7        CONSTR3   48
    X7        CONSTR4   662
    X7        CONSTR5   448
    X8        OBJ       772
    X8        CONSTR1   596
    X8        CONSTR2   512
    X8        CONSTR3   459
    X8        CONSTR4   614
    X8        CONSTR5   512
    X9        OBJ       901
    X9        CONSTR1   855
    X9        CONSTR2   729
    X9        CONSTR3   465
    X9        CONSTR4   473
    X9        CONSTR5   201
    X10       OBJ       706
    X10       CONSTR1   981
    X10       CONSTR2   558
    X10       CONSTR3   306
    X10       CONSTR4   566
    X10       CONSTR5   220
    X11       OBJ       780
    X11       CONSTR1   527
    X11       CONSTR2   22
    X11       CONSTR3   810
    X11       CONSTR4   491
    X11       CONSTR5   728
    X12       OBJ       806
    X12       CONSTR1   799
    X12       CONSTR2   617
    X12       CONSTR3   771
    X12       CONSTR4   729
    X12       CONSTR5   32
    X13       OBJ       810
    X13       CONSTR1   513
    X13       CONSTR2   398
    X13       CONSTR3   21
    X13       CONSTR4   565
    X13       CONSTR5   319
    X14       OBJ       746
    X14       CONSTR1   619
    X14       CONSTR2   719
    X14       CONSTR3   632
    X14       CONSTR4   546
    X14       CONSTR5   634
    X15       OBJ       870
    X15       CONSTR1   801
    X15       CONSTR2   961
    X15       CONSTR3   497
    X15       CONSTR4   420
    X15       CONSTR5   539
    X16       OBJ       1167
    X16       CONSTR1   906
    X16       CONSTR2   662
    X16       CONSTR3   67
    X16       CONSTR4   774
    X16       CONSTR5   941
    X17       OBJ       995
    X17       CONSTR1   509
    X17       CONSTR2   170
    X17       CONSTR3   545
    X17       CONSTR4   832
    X17       CONSTR5   450
    X18       OBJ       1075
    X18       CONSTR1   920
    X18       CONSTR2   711
    X18       CONSTR3   721
    X18       CONSTR4   600
    X18       CONSTR5   538
    X19       OBJ       576
    X19       CONSTR1   573
    X19       CONSTR2   234
    X19       CONSTR3   897
    X19       CONSTR4   26
    X19       CONSTR5   995
    X20       OBJ       661
    X20       CONSTR1   735
    X20       CONSTR2   664
    X20       CONSTR3   817
    X20       CONSTR4   185
    X20       CONSTR5   334
    X21       OBJ       518
    X21       CONSTR1   128
    X21       CONSTR2   788
    X21       CONSTR3   207
    X21       CONSTR4   827
    X21       CONSTR5   266
    X22       OBJ       742
    X22       CONSTR1   253
    X22       CONSTR2   649
    X22       CONSTR3   889
    X22       CONSTR4   409
    X22       CONSTR5   875
    X23       OBJ       1162
    X23       CONSTR1   828
    X23       CONSTR2   895
    X23       CONSTR3   946
    X23       CONSTR4   775
    X23       CONSTR5   394
    X24       OBJ       814
    X24       CONSTR1   654
    X24       CONSTR2   705
    X24       CONSTR3   236
    X24       CONSTR4   109
    X24       CONSTR5   987
    X25       OBJ       603
    X25       CONSTR1   112
    X25       CONSTR2   614
    X25       CONSTR3   481
    X25       CONSTR4   602
    X25       CONSTR5   915
    X26       OBJ       439
    X26       CONSTR1   115
    X26       CONSTR2   615
    X26       CONSTR3   624
    X26       CONSTR4   391
    X26       CONSTR5   109
    X27       OBJ       1026
    X27       CONSTR1   591
    X27       CONSTR2   538
    X27       CONSTR3   587
    X27       CONSTR4   122
    X27       CONSTR5   916
    X28       OBJ       641
    X28       CONSTR1   206
    X28       CONSTR2   384
    X28       CONSTR3   38
    X28       CONSTR4   56
    X28       CONSTR5   999
    X29       OBJ       737
    X29       CONSTR1   931
    X29       CONSTR2   557
    X29       CONSTR3   831
    X29       CONSTR4   385
    X29       CONSTR5   465
    X30       OBJ       1003
    X30       CONSTR1   153
    X30       CONSTR2   919
    X30       CONSTR3   740
    X30       CONSTR4   482
    X30       CONSTR5   273
    X31       OBJ       612
    X31       CONSTR1   706
    X31       CONSTR2   693
    X31       CONSTR3   448
    X31       CONSTR4   221
    X31       CONSTR5   358
    X32       OBJ       992
    X32       CONSTR1   522
    X32       CONSTR2   794
    X32       CONSTR3   644
    X32       CONSTR4   517
    X32       CONSTR5   857
    X33       OBJ       576
    X33       CONSTR1   63
    X33       CONSTR2   297
    X33       CONSTR3   963
    X33       CONSTR4   249
    X33       CONSTR5   576
    X34       OBJ       778
    X34       CONSTR1   676
    X34       CONSTR2   540
    X34       CONSTR3   13
    X34       CONSTR4   469
    X34       CONSTR5   406
    X35       OBJ       715
    X35       CONSTR1   799
    X35       CONSTR2   733
    X35       CONSTR3   204
    X35       CONSTR4   333
    X35       CONSTR5   154
    X36       OBJ       493
    X36       CONSTR1   737
    X36       CONSTR2   69
    X36       CONSTR3   253
    X36       CONSTR4   216
    X36       CONSTR5   825
    X37       OBJ       533
    X37       CONSTR1   432
    X37       CONSTR2   257
    X37       CONSTR3   29
    X37       CONSTR4   829
    X37       CONSTR5   237
    X38       OBJ       857
    X38       CONSTR1   669
    X38       CONSTR2   916
    X38       CONSTR3   322
    X38       CONSTR4   964
    X38       CONSTR5   721
    X39       OBJ       875
    X39       CONSTR1   161
    X39       CONSTR2   697
    X39       CONSTR3   792
    X39       CONSTR4   319
    X39       CONSTR5   383
    X40       OBJ       643
    X40       CONSTR1   28
    X40       CONSTR2   45
    X40       CONSTR3   739
    X40       CONSTR4   23
    X40       CONSTR5   381
    X41       OBJ       667
    X41       CONSTR1   578
    X41       CONSTR2   203
    X41       CONSTR3   685
    X41       CONSTR4   120
    X41       CONSTR5   508
    X42       OBJ       705
    X42       CONSTR1   449
    X42       CONSTR2   527
    X42       CONSTR3   182
    X42       CONSTR4   314
    X42       CONSTR5   913
    X43       OBJ       667
    X43       CONSTR1   43
    X43       CONSTR2   719
    X43       CONSTR3   391
    X43       CONSTR4   714
    X43       CONSTR5   35
    X44       OBJ       663
    X44       CONSTR1   189
    X44       CONSTR2   890
    X44       CONSTR3   316
    X44       CONSTR4   877
    X44       CONSTR5   713
    X45       OBJ       700
    X45       CONSTR1   492
    X45       CONSTR2   326
    X45       CONSTR3   276
    X45       CONSTR4   266
    X45       CONSTR5   296
    X46       OBJ       1055
    X46       CONSTR1   508
    X46       CONSTR2   954
    X46       CONSTR3   457
    X46       CONSTR4   916
    X46       CONSTR5   806
    X47       OBJ       938
    X47       CONSTR1   459
    X47       CONSTR2   651
    X47       CONSTR3   551
    X47       CONSTR4   385
    X47       CONSTR5   736
    X48       OBJ       561
    X48       CONSTR1   900
    X48       CONSTR2   55
    X48       CONSTR3   800
    X48       CONSTR4   278
    X48       CONSTR5   353
    X49       OBJ       633
    X49       CONSTR1   641
    X49       CONSTR2   200
    X49       CONSTR3   120
    X49       CONSTR4   255
    X49       CONSTR5   861
    X50       OBJ       608
    X50       CONSTR1   58
    X50       CONSTR2   735
    X50       CONSTR3   688
    X50       CONSTR4   679
    X50       CONSTR5   288
    X51       OBJ       731
    X51       CONSTR1   50
    X51       CONSTR2   311
    X51       CONSTR3   712
    X51       CONSTR4   236
    X51       CONSTR5   535
    X52       OBJ       723
    X52       CONSTR1   281
    X52       CONSTR2   260
    X52       CONSTR3   544
    X52       CONSTR4   858
    X52       CONSTR5   766
    X53       OBJ       933
    X53       CONSTR1   246
    X53       CONSTR2   407
    X53       CONSTR3   740
    X53       CONSTR4   685
    X53       CONSTR5   677
    X54       OBJ       1152
    X54       CONSTR1   691
    X54       CONSTR2   917
    X54       CONSTR3   829
    X54       CONSTR4   890
    X54       CONSTR5   878
    X55       OBJ       801
    X55       CONSTR1   537
    X55       CONSTR2   712
    X55       CONSTR3   121
    X55       CONSTR4   939
    X55       CONSTR5   792
    X56       OBJ       676
    X56       CONSTR1   905
    X56       CONSTR2   182
    X56       CONSTR3   43
    X56       CONSTR4   585
    X56       CONSTR5   1
    X57       OBJ       667
    X57       CONSTR1   933
    X57       CONSTR2   456
    X57       CONSTR3   972
    X57       CONSTR4   401
    X57       CONSTR5   372
    X58       OBJ       789
    X58       CONSTR1   940
    X58       CONSTR2   767
    X58       CONSTR3   44
    X58       CONSTR4   980
    X58       CONSTR5   197
    X59       OBJ       995
    X59       CONSTR1   362
    X59       CONSTR2   582
    X59       CONSTR3   879
    X59       CONSTR4   643
    X59       CONSTR5   468
    X60       OBJ       1008
    X60       CONSTR1   553
    X60       CONSTR2   475
    X60       CONSTR3   583
    X60       CONSTR4   898
    X60       CONSTR5   59
    X61       OBJ       811
    X61       CONSTR1   659
    X61       CONSTR2   785
    X61       CONSTR3   753
    X61       CONSTR4   465
    X61       CONSTR5   277
    X62       OBJ       723
    X62       CONSTR1   269
    X62       CONSTR2   806
    X62       CONSTR3   211
    X62       CONSTR4   763
    X62       CONSTR5   733
    X63       OBJ       773
    X63       CONSTR1   100
    X63       CONSTR2   346
    X63       CONSTR3   797
    X63       CONSTR4   668
    X63       CONSTR5   552
    X64       OBJ       821
    X64       CONSTR1   27
    X64       CONSTR2   792
    X64       CONSTR3   865
    X64       CONSTR4   212
    X64       CONSTR5   680
    X65       OBJ       836
    X65       CONSTR1   588
    X65       CONSTR2   919
    X65       CONSTR3   826
    X65       CONSTR4   703
    X65       CONSTR5   928
    X66       OBJ       654
    X66       CONSTR1   574
    X66       CONSTR2   820
    X66       CONSTR3   95
    X66       CONSTR4   497
    X66       CONSTR5   58
    X67       OBJ       856
    X67       CONSTR1   76
    X67       CONSTR2   261
    X67       CONSTR3   937
    X67       CONSTR4   904
    X67       CONSTR5   515
    X68       OBJ       912
    X68       CONSTR1   699
    X68       CONSTR2   966
    X68       CONSTR3   574
    X68       CONSTR4   969
    X68       CONSTR5   15
    X69       OBJ       678
    X69       CONSTR1   633
    X69       CONSTR2   750
    X69       CONSTR3   44
    X69       CONSTR4   170
    X69       CONSTR5   754
    X70       OBJ       1132
    X70       CONSTR1   856
    X70       CONSTR2   655
    X70       CONSTR3   830
    X70       CONSTR4   551
    X70       CONSTR5   791
    X71       OBJ       540
    X71       CONSTR1   99
    X71       CONSTR2   604
    X71       CONSTR3   5
    X71       CONSTR4   444
    X71       CONSTR5   786
    X72       OBJ       431
    X72       CONSTR1   872
    X72       CONSTR2   808
    X72       CONSTR3   229
    X72       CONSTR4   61
    X72       CONSTR5   74
    X73       OBJ       442
    X73       CONSTR1   7
    X73       CONSTR2   4
    X73       CONSTR3   494
    X73       CONSTR4   60
    X73       CONSTR5   651
    X74       OBJ       513
    X74       CONSTR1   253
    X74       CONSTR2   594
    X74       CONSTR3   448
    X74       CONSTR4   270
    X74       CONSTR5   450
    X75       OBJ       763
    X75       CONSTR1   276
    X75       CONSTR2   717
    X75       CONSTR3   368
    X75       CONSTR4   419
    X75       CONSTR5   215
    X76       OBJ       804
    X76       CONSTR1   339
    X76       CONSTR2   366
    X76       CONSTR3   667
    X76       CONSTR4   394
    X76       CONSTR5   982
    X77       OBJ       848
    X77       CONSTR1   607
    X77       CONSTR2   772
    X77       CONSTR3   248
    X77       CONSTR4   636
    X77       CONSTR5   253
    X78       OBJ       586
    X78       CONSTR1   383
    X78       CONSTR2   195
    X78       CONSTR3   172
    X78       CONSTR4   674
    X78       CONSTR5   128
    X79       OBJ       636
    X79       CONSTR1   962
    X79       CONSTR2   64
    X79       CONSTR3   656
    X79       CONSTR4   559
    X79       CONSTR5   814
    X80       OBJ       466
    X80       CONSTR1   121
    X80       CONSTR2   310
    X80       CONSTR3   476
    X80       CONSTR4   881
    X80       CONSTR5   538
    X81       OBJ       854
    X81       CONSTR1   812
    X81       CONSTR2   652
    X81       CONSTR3   325
    X81       CONSTR4   17
    X81       CONSTR5   33
    X82       OBJ       818
    X82       CONSTR1   122
    X82       CONSTR2   479
    X82       CONSTR3   427
    X82       CONSTR4   877
    X82       CONSTR5   663
    X83       OBJ       1226
    X83       CONSTR1   980
    X83       CONSTR2   326
    X83       CONSTR3   473
    X83       CONSTR4   975
    X83       CONSTR5   883
    X84       OBJ       1064
    X84       CONSTR1   625
    X84       CONSTR2   639
    X84       CONSTR3   297
    X84       CONSTR4   968
    X84       CONSTR5   951
    X85       OBJ       732
    X85       CONSTR1   161
    X85       CONSTR2   742
    X85       CONSTR3   948
    X85       CONSTR4   107
    X85       CONSTR5   274
    X86       OBJ       645
    X86       CONSTR1   673
    X86       CONSTR2   413
    X86       CONSTR3   543
    X86       CONSTR4   957
    X86       CONSTR5   390
    X87       OBJ       1075
    X87       CONSTR1   320
    X87       CONSTR2   916
    X87       CONSTR3   25
    X87       CONSTR4   631
    X87       CONSTR5   996
    X88       OBJ       1050
    X88       CONSTR1   508
    X88       CONSTR2   726
    X88       CONSTR3   751
    X88       CONSTR4   351
    X88       CONSTR5   804
    X89       OBJ       726
    X89       CONSTR1   846
    X89       CONSTR2   590
    X89       CONSTR3   186
    X89       CONSTR4   465
    X89       CONSTR5   374
    X90       OBJ       974
    X90       CONSTR1   521
    X90       CONSTR2   805
    X90       CONSTR3   850
    X90       CONSTR4   133
    X90       CONSTR5   453
    X91       OBJ       659
    X91       CONSTR1   592
    X91       CONSTR2   571
    X91       CONSTR3   819
    X91       CONSTR4   291
    X91       CONSTR5   331
    X92       OBJ       677
    X92       CONSTR1   119
    X92       CONSTR2   429
    X92       CONSTR3   369
    X92       CONSTR4   656
    X92       CONSTR5   942
    X93       OBJ       769
    X93       CONSTR1   967
    X93       CONSTR2   720
    X93       CONSTR3   765
    X93       CONSTR4   129
    X93       CONSTR5   200
    X94       OBJ       559
    X94       CONSTR1   839
    X94       CONSTR2   414
    X94       CONSTR3   454
    X94       CONSTR4   396
    X94       CONSTR5   467
    X95       OBJ       856
    X95       CONSTR1   206
    X95       CONSTR2   470
    X95       CONSTR3   144
    X95       CONSTR4   873
    X95       CONSTR5   560
    X96       OBJ       626
    X96       CONSTR1   850
    X96       CONSTR2   630
    X96       CONSTR3   395
    X96       CONSTR4   402
    X96       CONSTR5   129
    X97       OBJ       951
    X97       CONSTR1   163
    X97       CONSTR2   430
    X97       CONSTR3   905
    X97       CONSTR4   180
    X97       CONSTR5   647
    X98       OBJ       294
    X98       CONSTR1   370
    X98       CONSTR2   306
    X98       CONSTR3   249
    X98       CONSTR4   216
    X98       CONSTR5   19
    X99       OBJ       738
    X99       CONSTR1   49
    X99       CONSTR2   675
    X99       CONSTR3   508
    X99       CONSTR4   857
    X99       CONSTR5   128
    X100      OBJ       678
    X100      CONSTR1   214
    X100      CONSTR2   827
    X100      CONSTR3   406
    X100      CONSTR4   516
    X100      CONSTR5   762
    INT0001   'MARKER'  'INTEND'
RHS
    RHS10001  CONSTR1   36769
    RHS10001  CONSTR2   41585
    RHS10001  CONSTR3   36121
    RHS10001  CONSTR4   38570
    RHS10001  CONSTR5   38807
BOUNDS
 BV BND       X1        .00
 BV BND       X2        .00
 BV BND       X3        .00
 BV BND       X4        .00
 BV BND       X5        .00
 BV BND       X6        .00
 BV BND       X7        .00
 BV BND       X8        .00
 BV BND       X9        .00
 BV BND       X10       .00
 BV BND       X11       .00
 BV BND       X12       .00
 BV BND       X13       .00
 BV BND       X14       .00
 BV BND       X15       .00
 BV BND       X16       .00
 BV BND       X17       .00
 BV BND       X18       .00
 BV BND       X19       .00
 BV BND       X20       .00
 BV BND       X21       .00
 BV BND       X22       .00
 BV BND       X23       .00
 BV BND       X24       .00
 BV BND       X25       .00
 BV BND       X26       .00
 BV BND       X27       .00
 BV BND       X28       .00
 BV BND       X29       .00
 BV BND       X30       .00
 BV BND       X31       .00
 BV BND       X32       .00
 BV BND       X33       .00
 BV BND       X34       .00
 BV BND       X35       .00
 BV BND       X36       .00
 BV BND       X37       .00
 BV BND       X38       .00
 BV BND       X39       .00
 BV BND       X40       .00
 BV BND       X41       .00
 BV BND       X42       .00
 BV BND       X43       .00
 BV BND       X44       .00
 BV BND       X45       .00
 BV BND       X46       .00
 BV BND       X47       .00
 BV BND       X48       .00
 BV BND       X49       .00
 BV BND       X50       .00
 BV BND       X51       .00
 BV BND       X52       .00
 BV BND       X53       .00
 BV BND       X54       .00
 BV BND       X55       .00
 BV BND       X56       .00
 BV BND       X57       .00
 BV BND       X58       .00
 BV BND       X59       .00
 BV BND       X60       .00
 BV BND       X61       .00
 BV BND       X62       .00
 BV BND       X63       .00
 BV BND       X64       .00
 BV BND       X65       .00
 BV BND       X66       .00
 BV BND       X67       .00
 BV BND       X68       .00
 BV BND       X69       .00
 BV BND       X70       .00
 BV BND       X71       .00
 BV BND       X72       .00
 BV BND       X73       .00
 BV BND       X74       .00
 BV BND       X75       .00
 BV BND       X76       .00
 BV BND       X77       .00
 BV BND       X78       .00
 BV BND       X79       .00
 BV BND       X80       .00
 BV BND       X81       .00
 BV BND       X82       .00
 BV BND       X83       .00
 BV BND       X84       .00
 BV BND       X85       .00
 BV BND       X86       .00
 BV BND       X87       .00
 BV BND       X88       .00
 BV BND       X89       .00
 BV BND       X90       .00
 BV BND       X91       .00
 BV BND       X92       .00
 BV BND       X93       .00
 BV BND       X94       .00
 BV BND       X95       .00
 BV BND       X96       .00
 BV BND       X97       .00
 BV BND       X98       .00
 BV BND       X99       .00
 BV BND       X100      .00
ENDATA
